% Porcentaje mínimo de demanda a satisfacer
G = 2;
% costo por MW producido en cada planta
costo=[10, 10, 10];
% Capacidad diaria de las centrales (en MW)
capacidad=[100, 100, 100];
% Número de clientes
num_clientes=2;
% Número de días
num_dias=2;
% número de plantas
plantas=3;
% Pago por MW de cada cliente
pagoCliente=[20, 20];
% Demanda
demanda=[|10, 10
|10, 10
        |];
